p edge 250 3060
e 1 8
e 1 25
e 1 34
e 1 54
e 1 65
e 1 78
e 1 79
e 1 80
e 1 86
e 1 95
e 1 113
e 1 134
e 1 143
e 1 145
e 1 151
e 1 152
e 1 154
e 1 166
e 1 171
e 1 213
e 1 225
e 1 226
e 1 245
e 2 13
e 2 27
e 2 38
e 2 44
e 2 46
e 2 56
e 2 66
e 2 71
e 2 72
e 2 81
e 2 83
e 2 93
e 2 118
e 2 123
e 2 125
e 2 131
e 2 171
e 2 190
e 2 191
e 2 194
e 2 203
e 2 228
e 2 231
e 2 245
e 2 247
e 3 8
e 3 11
e 3 29
e 3 40
e 3 46
e 3 48
e 3 63
e 3 72
e 3 97
e 3 100
e 3 118
e 3 132
e 3 145
e 3 162
e 3 168
e 3 177
e 3 178
e 3 196
e 3 227
e 3 237
e 3 240
e 3 250
e 4 13
e 4 17
e 4 28
e 4 40
e 4 43
e 4 63
e 4 70
e 4 77
e 4 83
e 4 125
e 4 152
e 4 165
e 4 173
e 4 203
e 4 206
e 4 208
e 4 211
e 4 212
e 4 222
e 4 228
e 4 248
e 5 11
e 5 12
e 5 14
e 5 20
e 5 36
e 5 44
e 5 50
e 5 72
e 5 80
e 5 92
e 5 95
e 5 98
e 5 109
e 5 118
e 5 136
e 5 141
e 5 145
e 5 151
e 5 163
e 5 165
e 5 170
e 5 187
e 5 194
e 5 208
e 5 221
e 5 227
e 5 233
e 5 243
e 5 249
e 6 11
e 6 35
e 6 46
e 6 53
e 6 59
e 6 60
e 6 61
e 6 63
e 6 69
e 6 70
e 6 76
e 6 81
e 6 91
e 6 98
e 6 101
e 6 104
e 6 109
e 6 111
e 6 112
e 6 122
e 6 125
e 6 136
e 6 138
e 6 151
e 6 153
e 6 171
e 6 204
e 6 205
e 6 207
e 6 214
e 6 216
e 6 249
e 7 8
e 7 9
e 7 28
e 7 55
e 7 74
e 7 76
e 7 78
e 7 88
e 7 120
e 7 124
e 7 142
e 7 151
e 7 181
e 7 191
e 7 233
e 7 235
e 7 244
e 7 245
e 8 25
e 8 30
e 8 51
e 8 55
e 8 60
e 8 64
e 8 65
e 8 77
e 8 84
e 8 86
e 8 107
e 8 117
e 8 135
e 8 136
e 8 138
e 8 142
e 8 143
e 8 147
e 8 151
e 8 165
e 8 167
e 8 178
e 8 183
e 8 194
e 8 224
e 8 230
e 8 250
e 9 10
e 9 23
e 9 26
e 9 37
e 9 41
e 9 42
e 9 44
e 9 64
e 9 66
e 9 72
e 9 104
e 9 111
e 9 112
e 9 116
e 9 119
e 9 126
e 9 130
e 9 210
e 9 215
e 9 244
e 10 16
e 10 22
e 10 24
e 10 25
e 10 31
e 10 41
e 10 76
e 10 77
e 10 78
e 10 89
e 10 93
e 10 104
e 10 125
e 10 131
e 10 151
e 10 152
e 10 157
e 10 162
e 10 199
e 10 203
e 10 232
e 11 17
e 11 21
e 11 30
e 11 36
e 11 39
e 11 44
e 11 58
e 11 67
e 11 71
e 11 75
e 11 82
e 11 83
e 11 89
e 11 93
e 11 97
e 11 98
e 11 105
e 11 117
e 11 119
e 11 121
e 11 122
e 11 125
e 11 133
e 11 156
e 11 175
e 11 182
e 11 195
e 11 227
e 11 228
e 11 230
e 12 13
e 12 20
e 12 21
e 12 22
e 12 38
e 12 41
e 12 48
e 12 66
e 12 70
e 12 78
e 12 83
e 12 84
e 12 90
e 12 98
e 12 100
e 12 115
e 12 122
e 12 140
e 12 141
e 12 146
e 12 167
e 12 171
e 12 182
e 12 200
e 12 202
e 12 211
e 12 227
e 12 233
e 12 236
e 12 239
e 12 242
e 13 24
e 13 27
e 13 33
e 13 39
e 13 47
e 13 64
e 13 65
e 13 89
e 13 96
e 13 99
e 13 100
e 13 102
e 13 113
e 13 119
e 13 121
e 13 131
e 13 149
e 13 153
e 13 177
e 13 185
e 13 186
e 13 194
e 13 198
e 13 199
e 13 205
e 13 210
e 13 226
e 13 233
e 13 234
e 13 248
e 14 47
e 14 61
e 14 67
e 14 109
e 14 128
e 14 144
e 14 153
e 14 158
e 14 181
e 14 196
e 14 221
e 14 222
e 14 224
e 15 17
e 15 36
e 15 38
e 15 50
e 15 53
e 15 63
e 15 72
e 15 74
e 15 90
e 15 95
e 15 101
e 15 135
e 15 136
e 15 142
e 15 154
e 15 175
e 15 179
e 15 197
e 15 198
e 15 224
e 15 227
e 15 234
e 15 242
e 15 243
e 16 25
e 16 39
e 16 64
e 16 81
e 16 90
e 16 92
e 16 107
e 16 110
e 16 111
e 16 119
e 16 122
e 16 126
e 16 134
e 16 149
e 16 172
e 16 175
e 16 179
e 16 181
e 16 184
e 16 188
e 16 189
e 16 208
e 16 227
e 16 235
e 16 238
e 16 248
e 17 20
e 17 24
e 17 34
e 17 36
e 17 48
e 17 60
e 17 72
e 17 73
e 17 85
e 17 117
e 17 128
e 17 130
e 17 134
e 17 148
e 17 152
e 17 154
e 17 159
e 17 168
e 17 174
e 17 179
e 17 180
e 17 182
e 17 185
e 17 199
e 17 231
e 17 236
e 18 50
e 18 52
e 18 73
e 18 81
e 18 91
e 18 101
e 18 122
e 18 144
e 18 153
e 18 156
e 18 158
e 18 174
e 18 193
e 18 194
e 18 203
e 18 207
e 18 212
e 18 216
e 18 221
e 18 223
e 18 224
e 18 226
e 18 227
e 18 240
e 18 247
e 18 250
e 19 21
e 19 42
e 19 44
e 19 52
e 19 55
e 19 59
e 19 84
e 19 87
e 19 94
e 19 118
e 19 121
e 19 123
e 19 130
e 19 146
e 19 149
e 19 171
e 19 216
e 19 222
e 19 232
e 19 233
e 19 244
e 20 32
e 20 33
e 20 35
e 20 66
e 20 70
e 20 97
e 20 120
e 20 129
e 20 152
e 20 160
e 20 170
e 20 172
e 20 184
e 20 196
e 20 208
e 20 209
e 20 212
e 20 214
e 20 220
e 20 230
e 20 232
e 20 250
e 21 32
e 21 39
e 21 45
e 21 51
e 21 54
e 21 70
e 21 90
e 21 92
e 21 120
e 21 122
e 21 124
e 21 126
e 21 145
e 21 149
e 21 151
e 21 170
e 21 177
e 21 183
e 21 186
e 21 187
e 21 188
e 21 226
e 21 237
e 21 243
e 22 24
e 22 27
e 22 29
e 22 35
e 22 41
e 22 91
e 22 96
e 22 114
e 22 166
e 22 181
e 22 198
e 22 200
e 22 204
e 22 209
e 22 214
e 22 221
e 22 246
e 23 25
e 23 50
e 23 78
e 23 110
e 23 116
e 23 135
e 23 143
e 23 144
e 23 147
e 23 154
e 23 161
e 23 175
e 23 182
e 23 186
e 23 195
e 23 206
e 23 220
e 23 222
e 23 228
e 23 233
e 23 237
e 23 250
e 24 42
e 24 63
e 24 117
e 24 141
e 24 145
e 24 167
e 24 183
e 24 196
e 24 201
e 24 202
e 24 207
e 24 234
e 24 245
e 24 248
e 25 36
e 25 56
e 25 90
e 25 97
e 25 106
e 25 109
e 25 111
e 25 121
e 25 125
e 25 136
e 25 150
e 25 151
e 25 153
e 25 155
e 25 164
e 25 188
e 25 191
e 25 202
e 25 204
e 25 233
e 26 29
e 26 53
e 26 70
e 26 124
e 26 148
e 26 150
e 26 160
e 26 165
e 26 170
e 26 174
e 26 175
e 26 182
e 26 185
e 26 194
e 26 206
e 26 211
e 26 212
e 26 222
e 26 234
e 26 236
e 26 242
e 27 51
e 27 72
e 27 80
e 27 82
e 27 99
e 27 105
e 27 123
e 27 130
e 27 131
e 27 180
e 27 188
e 27 189
e 27 204
e 27 214
e 27 228
e 27 248
e 28 31
e 28 50
e 28 67
e 28 69
e 28 70
e 28 105
e 28 127
e 28 133
e 28 138
e 28 168
e 28 173
e 28 186
e 28 189
e 28 191
e 28 196
e 28 226
e 28 242
e 28 243
e 29 49
e 29 50
e 29 51
e 29 54
e 29 60
e 29 71
e 29 88
e 29 92
e 29 112
e 29 124
e 29 133
e 29 141
e 29 144
e 29 146
e 29 155
e 29 180
e 29 199
e 29 228
e 29 229
e 29 237
e 30 33
e 30 75
e 30 77
e 30 87
e 30 103
e 30 122
e 30 149
e 30 165
e 30 174
e 30 180
e 30 197
e 30 205
e 30 239
e 30 247
e 31 38
e 31 66
e 31 91
e 31 112
e 31 115
e 31 120
e 31 135
e 31 137
e 31 140
e 31 149
e 31 151
e 31 165
e 31 176
e 31 182
e 31 193
e 31 206
e 31 219
e 31 242
e 32 35
e 32 66
e 32 90
e 32 94
e 32 109
e 32 112
e 32 115
e 32 117
e 32 118
e 32 132
e 32 139
e 32 142
e 32 146
e 32 148
e 32 149
e 32 154
e 32 181
e 32 189
e 32 194
e 32 216
e 32 218
e 32 223
e 32 237
e 32 250
e 33 34
e 33 47
e 33 58
e 33 59
e 33 61
e 33 63
e 33 66
e 33 74
e 33 80
e 33 84
e 33 96
e 33 101
e 33 111
e 33 137
e 33 140
e 33 141
e 33 148
e 33 152
e 33 168
e 33 175
e 33 203
e 33 213
e 33 223
e 33 225
e 33 236
e 33 240
e 34 38
e 34 48
e 34 51
e 34 53
e 34 72
e 34 74
e 34 75
e 34 83
e 34 87
e 34 94
e 34 104
e 34 116
e 34 127
e 34 137
e 34 142
e 34 152
e 34 165
e 34 167
e 34 177
e 34 190
e 34 206
e 34 228
e 34 229
e 34 237
e 34 245
e 35 48
e 35 55
e 35 81
e 35 94
e 35 98
e 35 105
e 35 122
e 35 124
e 35 137
e 35 139
e 35 146
e 35 160
e 35 164
e 35 175
e 35 177
e 35 198
e 35 208
e 35 217
e 35 238
e 36 39
e 36 54
e 36 61
e 36 66
e 36 67
e 36 69
e 36 71
e 36 100
e 36 103
e 36 104
e 36 107
e 36 108
e 36 110
e 36 115
e 36 118
e 36 129
e 36 137
e 36 154
e 36 167
e 36 169
e 36 174
e 36 179
e 36 195
e 36 202
e 36 203
e 36 209
e 36 213
e 36 222
e 36 227
e 36 236
e 37 39
e 37 42
e 37 78
e 37 88
e 37 97
e 37 112
e 37 119
e 37 126
e 37 128
e 37 141
e 37 147
e 37 153
e 37 162
e 37 171
e 37 179
e 37 182
e 37 189
e 37 192
e 37 194
e 37 232
e 37 239
e 38 47
e 38 61
e 38 67
e 38 88
e 38 89
e 38 92
e 38 93
e 38 114
e 38 130
e 38 131
e 38 135
e 38 140
e 38 180
e 38 182
e 38 183
e 38 192
e 38 199
e 38 211
e 38 229
e 38 247
e 38 248
e 39 47
e 39 59
e 39 62
e 39 66
e 39 82
e 39 91
e 39 98
e 39 112
e 39 117
e 39 125
e 39 147
e 39 165
e 39 171
e 39 212
e 39 236
e 39 239
e 39 244
e 39 246
e 40 56
e 40 65
e 40 80
e 40 91
e 40 92
e 40 93
e 40 101
e 40 120
e 40 157
e 40 166
e 40 180
e 40 182
e 40 212
e 40 225
e 40 228
e 40 231
e 41 43
e 41 64
e 41 67
e 41 78
e 41 81
e 41 95
e 41 127
e 41 141
e 41 147
e 41 155
e 41 168
e 41 174
e 41 177
e 41 185
e 41 187
e 41 200
e 41 201
e 41 203
e 41 207
e 41 213
e 41 248
e 42 50
e 42 93
e 42 101
e 42 120
e 42 129
e 42 138
e 42 148
e 42 149
e 42 155
e 42 161
e 42 176
e 42 181
e 42 201
e 42 208
e 42 228
e 42 232
e 43 48
e 43 61
e 43 66
e 43 67
e 43 96
e 43 116
e 43 127
e 43 128
e 43 129
e 43 149
e 43 170
e 43 192
e 43 211
e 43 226
e 43 228
e 43 235
e 43 239
e 43 244
e 43 248
e 43 250
e 44 103
e 44 108
e 44 114
e 44 148
e 44 152
e 44 156
e 44 214
e 44 221
e 44 223
e 44 230
e 44 238
e 44 246
e 45 51
e 45 64
e 45 71
e 45 73
e 45 75
e 45 76
e 45 77
e 45 87
e 45 94
e 45 133
e 45 140
e 45 160
e 45 168
e 45 172
e 45 191
e 45 202
e 45 204
e 45 237
e 45 245
e 45 248
e 46 60
e 46 72
e 46 88
e 46 89
e 46 90
e 46 121
e 46 131
e 46 133
e 46 139
e 46 156
e 46 158
e 46 171
e 46 206
e 46 223
e 46 225
e 46 230
e 46 233
e 46 237
e 46 238
e 46 239
e 47 48
e 47 55
e 47 71
e 47 82
e 47 89
e 47 121
e 47 125
e 47 129
e 47 138
e 47 141
e 47 159
e 47 174
e 47 176
e 47 178
e 47 183
e 47 188
e 47 193
e 47 199
e 47 209
e 47 210
e 47 217
e 47 236
e 47 249
e 48 52
e 48 85
e 48 102
e 48 107
e 48 115
e 48 127
e 48 147
e 48 157
e 48 167
e 48 172
e 48 196
e 48 203
e 48 211
e 48 227
e 48 241
e 49 57
e 49 65
e 49 77
e 49 83
e 49 97
e 49 98
e 49 106
e 49 113
e 49 117
e 49 119
e 49 132
e 49 146
e 49 171
e 49 175
e 49 177
e 49 178
e 49 182
e 49 196
e 49 210
e 49 212
e 49 222
e 49 224
e 49 227
e 49 236
e 49 246
e 50 76
e 50 78
e 50 113
e 50 115
e 50 116
e 50 123
e 50 126
e 50 175
e 50 177
e 50 178
e 50 199
e 50 222
e 50 234
e 51 67
e 51 79
e 51 89
e 51 90
e 51 91
e 51 100
e 51 101
e 51 111
e 51 116
e 51 145
e 51 155
e 51 162
e 51 168
e 51 194
e 51 203
e 51 218
e 51 246
e 52 60
e 52 80
e 52 83
e 52 86
e 52 89
e 52 114
e 52 121
e 52 137
e 52 147
e 52 159
e 52 178
e 52 183
e 52 191
e 52 210
e 52 242
e 52 244
e 52 248
e 52 249
e 53 79
e 53 85
e 53 97
e 53 102
e 53 103
e 53 112
e 53 120
e 53 121
e 53 122
e 53 126
e 53 130
e 53 132
e 53 135
e 53 156
e 53 187
e 53 219
e 53 224
e 53 235
e 53 240
e 54 55
e 54 62
e 54 83
e 54 93
e 54 105
e 54 111
e 54 124
e 54 134
e 54 138
e 54 141
e 54 149
e 54 155
e 54 171
e 54 175
e 54 192
e 54 193
e 54 195
e 54 206
e 54 207
e 54 219
e 54 225
e 54 236
e 54 247
e 55 58
e 55 62
e 55 64
e 55 66
e 55 75
e 55 91
e 55 92
e 55 100
e 55 103
e 55 109
e 55 122
e 55 182
e 55 212
e 55 216
e 55 228
e 55 241
e 56 66
e 56 73
e 56 80
e 56 96
e 56 125
e 56 138
e 56 154
e 56 165
e 56 166
e 56 174
e 56 178
e 56 214
e 56 234
e 57 66
e 57 85
e 57 87
e 57 88
e 57 96
e 57 104
e 57 129
e 57 140
e 57 147
e 57 148
e 57 189
e 57 194
e 57 197
e 57 198
e 57 209
e 57 234
e 57 239
e 58 62
e 58 101
e 58 109
e 58 120
e 58 143
e 58 168
e 58 175
e 58 185
e 58 205
e 58 207
e 58 211
e 58 213
e 58 214
e 59 60
e 59 68
e 59 74
e 59 96
e 59 110
e 59 116
e 59 135
e 59 138
e 59 146
e 59 150
e 59 159
e 59 173
e 59 176
e 59 181
e 59 200
e 59 217
e 59 219
e 59 221
e 59 226
e 59 229
e 59 236
e 60 66
e 60 67
e 60 75
e 60 86
e 60 93
e 60 97
e 60 103
e 60 105
e 60 108
e 60 111
e 60 114
e 60 116
e 60 123
e 60 136
e 60 155
e 60 168
e 60 176
e 60 197
e 60 200
e 60 205
e 60 230
e 60 231
e 60 239
e 60 241
e 61 65
e 61 79
e 61 85
e 61 91
e 61 110
e 61 119
e 61 126
e 61 144
e 61 147
e 61 151
e 61 187
e 61 202
e 61 203
e 61 208
e 61 218
e 61 230
e 61 233
e 61 237
e 61 240
e 61 243
e 62 84
e 62 98
e 62 103
e 62 112
e 62 116
e 62 166
e 62 172
e 62 176
e 62 195
e 62 201
e 62 213
e 62 233
e 62 239
e 62 242
e 62 243
e 63 65
e 63 79
e 63 82
e 63 96
e 63 108
e 63 110
e 63 126
e 63 135
e 63 161
e 63 167
e 63 175
e 63 182
e 63 184
e 63 199
e 63 204
e 63 225
e 63 228
e 63 233
e 63 239
e 64 81
e 64 84
e 64 89
e 64 90
e 64 99
e 64 108
e 64 111
e 64 140
e 64 141
e 64 144
e 64 160
e 64 163
e 64 177
e 64 179
e 64 182
e 64 191
e 64 192
e 64 203
e 64 230
e 64 235
e 65 79
e 65 88
e 65 110
e 65 115
e 65 117
e 65 129
e 65 162
e 65 173
e 65 187
e 65 194
e 65 197
e 65 201
e 65 207
e 65 214
e 65 221
e 65 247
e 66 70
e 66 73
e 66 82
e 66 86
e 66 120
e 66 123
e 66 131
e 66 135
e 66 164
e 66 184
e 66 191
e 66 195
e 66 199
e 66 202
e 66 209
e 66 226
e 66 232
e 66 233
e 66 235
e 66 248
e 67 70
e 67 82
e 67 91
e 67 151
e 67 155
e 67 161
e 67 162
e 67 177
e 67 186
e 67 196
e 67 197
e 67 203
e 67 207
e 67 218
e 67 220
e 67 223
e 67 227
e 67 229
e 67 238
e 67 244
e 67 248
e 68 83
e 68 88
e 68 123
e 68 129
e 68 135
e 68 142
e 68 167
e 68 170
e 68 173
e 68 197
e 68 215
e 68 220
e 68 225
e 68 233
e 68 247
e 68 249
e 69 75
e 69 90
e 69 114
e 69 122
e 69 123
e 69 130
e 69 158
e 69 170
e 69 180
e 69 193
e 69 215
e 69 223
e 69 232
e 70 72
e 70 73
e 70 74
e 70 81
e 70 85
e 70 93
e 70 94
e 70 97
e 70 99
e 70 107
e 70 116
e 70 126
e 70 142
e 70 151
e 70 159
e 70 182
e 70 194
e 70 197
e 70 198
e 70 199
e 70 200
e 70 210
e 70 225
e 70 229
e 70 241
e 71 89
e 71 114
e 71 115
e 71 132
e 71 134
e 71 139
e 71 143
e 71 176
e 71 192
e 71 216
e 71 232
e 71 250
e 72 78
e 72 83
e 72 100
e 72 106
e 72 127
e 72 131
e 72 137
e 72 138
e 72 141
e 72 143
e 72 177
e 72 188
e 72 193
e 72 199
e 72 204
e 72 207
e 72 213
e 72 214
e 72 223
e 73 75
e 73 77
e 73 84
e 73 89
e 73 90
e 73 92
e 73 97
e 73 99
e 73 106
e 73 118
e 73 119
e 73 124
e 73 132
e 73 142
e 73 168
e 73 181
e 73 189
e 73 208
e 73 211
e 73 214
e 73 219
e 73 221
e 73 229
e 73 238
e 73 242
e 74 82
e 74 83
e 74 86
e 74 90
e 74 91
e 74 95
e 74 103
e 74 110
e 74 111
e 74 124
e 74 133
e 74 136
e 74 138
e 74 143
e 74 167
e 74 168
e 74 174
e 74 184
e 74 192
e 74 193
e 74 209
e 74 214
e 74 250
e 75 84
e 75 91
e 75 96
e 75 105
e 75 111
e 75 140
e 75 146
e 75 160
e 75 180
e 75 184
e 75 190
e 75 197
e 75 204
e 75 219
e 75 225
e 75 241
e 76 77
e 76 99
e 76 129
e 76 136
e 76 138
e 76 145
e 76 173
e 76 180
e 76 200
e 76 224
e 76 234
e 77 85
e 77 110
e 77 124
e 77 128
e 77 136
e 77 176
e 77 179
e 77 181
e 77 182
e 77 197
e 77 201
e 77 216
e 77 220
e 77 232
e 77 237
e 78 83
e 78 100
e 78 132
e 78 134
e 78 136
e 78 147
e 78 163
e 78 168
e 78 179
e 78 182
e 78 196
e 78 200
e 78 209
e 78 245
e 78 249
e 79 80
e 79 86
e 79 92
e 79 100
e 79 108
e 79 117
e 79 118
e 79 126
e 79 132
e 79 144
e 79 148
e 79 152
e 79 153
e 79 156
e 79 157
e 79 181
e 79 183
e 79 186
e 79 193
e 79 198
e 79 203
e 79 205
e 79 207
e 79 223
e 79 229
e 79 230
e 79 242
e 79 244
e 80 81
e 80 86
e 80 91
e 80 94
e 80 105
e 80 106
e 80 119
e 80 122
e 80 124
e 80 130
e 80 132
e 80 140
e 80 150
e 80 175
e 80 201
e 80 202
e 80 203
e 80 206
e 80 209
e 80 218
e 80 239
e 80 243
e 80 246
e 80 249
e 81 86
e 81 139
e 81 146
e 81 150
e 81 155
e 81 167
e 81 168
e 81 195
e 81 200
e 81 210
e 81 222
e 81 225
e 81 228
e 81 250
e 82 89
e 82 91
e 82 109
e 82 112
e 82 115
e 82 116
e 82 122
e 82 123
e 82 158
e 82 164
e 82 168
e 82 169
e 82 178
e 82 212
e 82 218
e 82 230
e 82 234
e 82 236
e 82 246
e 83 113
e 83 114
e 83 122
e 83 126
e 83 160
e 83 162
e 83 185
e 83 190
e 83 197
e 83 205
e 83 219
e 83 232
e 83 235
e 84 90
e 84 96
e 84 110
e 84 118
e 84 119
e 84 120
e 84 126
e 84 130
e 84 150
e 84 155
e 84 179
e 84 184
e 84 206
e 84 224
e 84 230
e 84 231
e 84 234
e 84 238
e 85 91
e 85 96
e 85 106
e 85 145
e 85 162
e 85 164
e 85 165
e 85 186
e 85 195
e 85 205
e 85 206
e 85 212
e 85 217
e 85 230
e 85 239
e 85 242
e 86 89
e 86 90
e 86 103
e 86 105
e 86 113
e 86 116
e 86 136
e 86 151
e 86 155
e 86 184
e 86 193
e 86 198
e 86 217
e 86 233
e 87 111
e 87 123
e 87 127
e 87 140
e 87 141
e 87 147
e 87 166
e 87 171
e 87 180
e 87 189
e 87 198
e 87 211
e 87 214
e 87 221
e 87 226
e 87 227
e 87 228
e 87 246
e 87 250
e 88 114
e 88 125
e 88 142
e 88 149
e 88 151
e 88 174
e 88 179
e 88 181
e 88 182
e 88 186
e 88 187
e 88 196
e 88 212
e 88 221
e 88 224
e 88 233
e 88 235
e 88 242
e 89 97
e 89 101
e 89 103
e 89 105
e 89 111
e 89 120
e 89 124
e 89 162
e 89 178
e 89 197
e 89 223
e 89 225
e 89 233
e 89 243
e 89 245
e 89 246
e 89 250
e 90 92
e 90 104
e 90 107
e 90 121
e 90 124
e 90 130
e 90 143
e 90 152
e 90 160
e 90 162
e 90 174
e 90 179
e 90 201
e 90 205
e 90 211
e 90 215
e 90 222
e 90 234
e 91 108
e 91 116
e 91 125
e 91 131
e 91 133
e 91 144
e 91 160
e 91 176
e 91 206
e 91 224
e 91 237
e 91 248
e 92 109
e 92 117
e 92 123
e 92 125
e 92 126
e 92 151
e 92 165
e 92 167
e 92 172
e 92 178
e 92 179
e 92 218
e 93 96
e 93 101
e 93 107
e 93 109
e 93 110
e 93 141
e 93 143
e 93 172
e 93 179
e 93 182
e 93 192
e 93 197
e 93 198
e 93 204
e 93 216
e 93 223
e 93 234
e 93 244
e 93 246
e 94 104
e 94 106
e 94 111
e 94 131
e 94 132
e 94 141
e 94 143
e 94 160
e 94 161
e 94 178
e 94 184
e 94 195
e 94 209
e 94 214
e 94 216
e 94 221
e 94 222
e 94 225
e 94 233
e 94 236
e 94 244
e 94 247
e 95 106
e 95 113
e 95 115
e 95 121
e 95 122
e 95 141
e 95 159
e 95 180
e 95 204
e 95 220
e 95 227
e 95 238
e 96 98
e 96 126
e 96 128
e 96 150
e 96 152
e 96 155
e 96 168
e 96 170
e 96 192
e 96 196
e 96 204
e 96 207
e 96 209
e 96 222
e 96 236
e 96 242
e 96 244
e 96 248
e 97 105
e 97 111
e 97 113
e 97 139
e 97 143
e 97 167
e 97 171
e 97 176
e 97 179
e 97 183
e 97 215
e 97 218
e 97 223
e 97 245
e 98 123
e 98 124
e 98 130
e 98 142
e 98 147
e 98 151
e 98 168
e 98 191
e 98 199
e 98 230
e 98 231
e 98 233
e 98 234
e 98 243
e 98 248
e 98 249
e 99 125
e 99 126
e 99 129
e 99 148
e 99 185
e 99 195
e 99 202
e 99 206
e 99 250
e 100 113
e 100 119
e 100 123
e 100 129
e 100 132
e 100 142
e 100 148
e 100 151
e 100 153
e 100 155
e 100 179
e 100 218
e 100 223
e 100 232
e 101 106
e 101 117
e 101 128
e 101 161
e 101 169
e 101 189
e 101 201
e 101 207
e 101 213
e 101 218
e 102 110
e 102 116
e 102 118
e 102 124
e 102 140
e 102 141
e 102 150
e 102 164
e 102 173
e 102 181
e 102 188
e 102 190
e 102 196
e 102 211
e 102 236
e 102 238
e 102 250
e 103 104
e 103 125
e 103 129
e 103 131
e 103 133
e 103 135
e 103 139
e 103 143
e 103 156
e 103 169
e 103 191
e 103 204
e 103 210
e 103 221
e 103 231
e 103 240
e 103 245
e 104 127
e 104 140
e 104 143
e 104 149
e 104 165
e 104 171
e 104 172
e 104 174
e 104 175
e 104 186
e 104 213
e 104 214
e 104 216
e 104 225
e 104 232
e 104 237
e 105 125
e 105 129
e 105 133
e 105 150
e 105 189
e 105 204
e 105 211
e 105 228
e 105 231
e 105 238
e 106 110
e 106 114
e 106 117
e 106 121
e 106 131
e 106 151
e 106 153
e 106 162
e 106 180
e 106 191
e 106 204
e 106 221
e 106 222
e 106 228
e 106 230
e 107 114
e 107 133
e 107 160
e 107 187
e 107 219
e 107 237
e 107 245
e 107 248
e 108 132
e 108 134
e 108 147
e 108 150
e 108 156
e 108 160
e 108 162
e 108 167
e 108 177
e 108 215
e 108 221
e 108 222
e 108 230
e 108 249
e 109 118
e 109 126
e 109 143
e 109 167
e 109 169
e 109 177
e 109 179
e 109 184
e 109 187
e 109 188
e 109 195
e 109 201
e 109 203
e 109 206
e 109 218
e 109 219
e 109 233
e 109 241
e 109 244
e 110 111
e 110 119
e 110 121
e 110 134
e 110 151
e 110 152
e 110 154
e 110 171
e 110 184
e 110 187
e 110 206
e 110 226
e 110 228
e 110 229
e 110 233
e 110 234
e 110 249
e 111 151
e 111 153
e 111 191
e 111 199
e 111 205
e 111 217
e 111 223
e 111 231
e 112 113
e 112 125
e 112 136
e 112 141
e 112 156
e 112 162
e 112 178
e 112 188
e 112 192
e 112 193
e 112 197
e 112 209
e 112 212
e 112 218
e 112 223
e 112 227
e 112 236
e 113 119
e 113 132
e 113 140
e 113 153
e 113 160
e 113 162
e 113 180
e 113 184
e 113 201
e 113 226
e 113 240
e 113 249
e 113 250
e 114 119
e 114 121
e 114 128
e 114 134
e 114 146
e 114 150
e 114 166
e 114 179
e 114 186
e 114 205
e 114 219
e 114 221
e 114 229
e 114 234
e 114 241
e 114 249
e 115 129
e 115 133
e 115 137
e 115 146
e 115 151
e 115 152
e 115 161
e 115 172
e 115 218
e 115 221
e 115 225
e 115 228
e 115 233
e 115 244
e 116 128
e 116 139
e 116 152
e 116 153
e 116 177
e 116 180
e 116 181
e 116 182
e 116 199
e 116 215
e 116 224
e 116 245
e 116 248
e 117 121
e 117 154
e 117 163
e 117 164
e 117 168
e 117 179
e 117 195
e 117 200
e 117 219
e 117 235
e 117 240
e 117 244
e 117 247
e 118 119
e 118 121
e 118 132
e 118 159
e 118 171
e 118 174
e 118 177
e 118 178
e 118 182
e 118 190
e 118 204
e 118 205
e 118 208
e 118 209
e 118 220
e 118 236
e 118 238
e 118 246
e 118 247
e 118 250
e 119 128
e 119 133
e 119 137
e 119 163
e 119 164
e 119 166
e 119 177
e 119 179
e 119 204
e 119 207
e 119 210
e 119 240
e 120 137
e 120 146
e 120 148
e 120 149
e 120 182
e 120 188
e 120 197
e 120 206
e 120 216
e 120 231
e 120 245
e 120 246
e 121 129
e 121 157
e 121 171
e 121 181
e 121 193
e 121 220
e 121 221
e 121 227
e 121 229
e 121 242
e 121 243
e 121 244
e 122 158
e 122 170
e 122 177
e 122 179
e 122 187
e 122 196
e 122 225
e 122 231
e 122 237
e 123 127
e 123 135
e 123 148
e 123 150
e 123 151
e 123 154
e 123 160
e 123 181
e 123 190
e 123 192
e 123 193
e 123 194
e 123 200
e 123 217
e 123 226
e 123 229
e 123 230
e 123 240
e 124 132
e 124 135
e 124 140
e 124 155
e 124 212
e 124 214
e 124 233
e 124 237
e 124 250
e 125 134
e 125 141
e 125 162
e 125 171
e 125 172
e 125 183
e 125 215
e 125 218
e 125 236
e 125 245
e 125 246
e 126 132
e 126 136
e 126 140
e 126 143
e 126 144
e 126 149
e 126 155
e 126 166
e 126 167
e 126 175
e 126 203
e 126 238
e 126 250
e 127 131
e 127 135
e 127 142
e 127 149
e 127 153
e 127 158
e 127 162
e 127 172
e 127 176
e 127 178
e 127 186
e 127 196
e 127 197
e 127 208
e 127 222
e 127 231
e 128 139
e 128 143
e 128 147
e 128 166
e 128 171
e 128 182
e 128 194
e 128 200
e 128 228
e 128 239
e 129 158
e 129 166
e 129 179
e 129 184
e 129 185
e 129 196
e 129 201
e 129 203
e 129 205
e 129 206
e 129 211
e 129 220
e 129 222
e 129 223
e 129 226
e 129 228
e 129 231
e 129 240
e 129 248
e 130 142
e 130 143
e 130 147
e 130 207
e 130 227
e 130 235
e 131 132
e 131 143
e 131 151
e 131 153
e 131 155
e 131 177
e 131 179
e 131 186
e 131 187
e 131 205
e 131 215
e 131 217
e 131 240
e 131 242
e 131 243
e 131 247
e 132 151
e 132 161
e 132 190
e 132 191
e 132 192
e 132 202
e 132 208
e 132 216
e 132 238
e 132 250
e 133 144
e 133 146
e 133 148
e 133 177
e 133 181
e 133 187
e 133 188
e 133 189
e 133 201
e 133 209
e 133 237
e 134 136
e 134 137
e 134 146
e 134 154
e 134 178
e 134 218
e 134 244
e 134 247
e 134 248
e 135 154
e 135 155
e 135 164
e 135 166
e 135 172
e 135 194
e 135 210
e 135 219
e 135 221
e 135 239
e 135 250
e 136 149
e 136 156
e 136 160
e 136 163
e 136 178
e 136 182
e 136 187
e 136 203
e 136 220
e 136 248
e 136 249
e 137 142
e 137 145
e 137 166
e 137 169
e 137 170
e 137 179
e 137 180
e 137 186
e 137 191
e 137 198
e 137 200
e 137 215
e 137 222
e 137 224
e 137 237
e 137 242
e 137 245
e 138 150
e 138 169
e 138 175
e 138 178
e 138 179
e 138 181
e 138 203
e 138 220
e 138 222
e 138 225
e 138 227
e 138 239
e 138 241
e 138 243
e 138 245
e 138 246
e 139 147
e 139 150
e 139 155
e 139 172
e 139 178
e 139 187
e 139 189
e 139 196
e 139 205
e 139 208
e 139 231
e 139 237
e 139 248
e 140 148
e 140 154
e 140 169
e 140 178
e 140 179
e 140 182
e 140 209
e 140 220
e 140 224
e 140 231
e 140 250
e 141 142
e 141 146
e 141 150
e 141 156
e 141 161
e 141 169
e 141 201
e 141 207
e 141 210
e 141 231
e 141 235
e 141 242
e 141 248
e 141 249
e 142 151
e 142 152
e 142 153
e 142 158
e 142 164
e 142 195
e 142 197
e 142 220
e 142 249
e 143 184
e 143 188
e 143 195
e 143 213
e 144 158
e 144 170
e 144 176
e 144 180
e 144 196
e 144 205
e 144 211
e 144 229
e 144 233
e 144 234
e 144 237
e 145 161
e 145 178
e 145 190
e 145 208
e 145 214
e 145 219
e 145 235
e 146 187
e 146 194
e 146 208
e 146 209
e 146 210
e 146 214
e 146 223
e 146 231
e 146 244
e 147 149
e 147 155
e 147 165
e 147 168
e 147 206
e 147 213
e 147 222
e 148 165
e 148 193
e 148 212
e 148 214
e 148 226
e 148 233
e 148 234
e 148 238
e 148 246
e 149 158
e 149 159
e 149 167
e 149 177
e 149 178
e 149 196
e 149 197
e 149 234
e 149 235
e 149 240
e 149 245
e 150 156
e 150 165
e 150 180
e 150 195
e 150 202
e 150 217
e 150 230
e 150 249
e 151 155
e 151 164
e 151 166
e 151 180
e 151 182
e 151 195
e 151 229
e 151 232
e 151 240
e 152 168
e 152 198
e 152 206
e 152 234
e 152 246
e 153 154
e 153 169
e 153 185
e 153 203
e 153 226
e 153 231
e 153 238
e 153 240
e 153 243
e 153 250
e 154 156
e 154 163
e 154 165
e 154 170
e 154 172
e 154 184
e 154 188
e 154 189
e 154 200
e 154 204
e 154 207
e 154 218
e 154 228
e 154 236
e 154 240
e 154 244
e 155 162
e 155 164
e 155 175
e 155 181
e 155 187
e 155 194
e 155 198
e 155 200
e 155 206
e 155 226
e 155 228
e 155 236
e 156 178
e 156 179
e 156 197
e 156 203
e 156 205
e 156 206
e 156 211
e 156 213
e 156 243
e 156 246
e 157 161
e 157 170
e 157 171
e 157 181
e 157 184
e 157 236
e 157 250
e 158 164
e 158 171
e 158 175
e 158 188
e 158 209
e 158 215
e 158 219
e 158 223
e 158 225
e 158 226
e 158 245
e 158 247
e 159 180
e 159 185
e 159 188
e 159 190
e 159 195
e 159 200
e 159 214
e 159 221
e 159 249
e 160 170
e 160 201
e 160 202
e 160 212
e 160 213
e 160 217
e 160 234
e 160 240
e 160 248
e 161 162
e 161 171
e 161 172
e 161 181
e 161 202
e 161 204
e 161 206
e 161 223
e 161 227
e 161 229
e 161 239
e 161 240
e 161 246
e 162 164
e 162 172
e 162 180
e 162 185
e 162 196
e 162 199
e 162 201
e 162 208
e 162 209
e 162 222
e 162 227
e 162 240
e 162 250
e 163 166
e 163 172
e 163 175
e 163 182
e 163 186
e 163 193
e 163 195
e 163 209
e 163 215
e 163 218
e 163 233
e 163 235
e 163 250
e 164 167
e 164 173
e 164 177
e 164 182
e 164 189
e 164 196
e 164 203
e 164 205
e 164 210
e 164 221
e 164 231
e 164 233
e 164 240
e 165 179
e 165 200
e 165 208
e 165 248
e 166 170
e 166 171
e 166 180
e 166 185
e 166 193
e 166 199
e 166 203
e 166 211
e 167 184
e 167 202
e 167 213
e 167 218
e 167 228
e 167 235
e 167 237
e 168 171
e 168 178
e 168 181
e 168 190
e 168 195
e 168 196
e 168 204
e 168 213
e 168 224
e 169 176
e 169 191
e 169 196
e 169 204
e 169 220
e 169 224
e 169 227
e 169 244
e 170 175
e 170 205
e 170 207
e 170 230
e 171 178
e 171 183
e 171 189
e 171 195
e 171 202
e 171 205
e 171 213
e 171 215
e 171 217
e 171 239
e 171 250
e 172 175
e 172 178
e 172 192
e 172 204
e 172 229
e 173 183
e 173 191
e 173 194
e 173 208
e 173 214
e 173 221
e 173 229
e 173 231
e 173 241
e 173 246
e 174 183
e 174 187
e 174 192
e 174 200
e 174 221
e 174 228
e 174 234
e 174 248
e 174 250
e 175 223
e 175 225
e 175 241
e 176 181
e 176 197
e 176 202
e 176 215
e 176 218
e 176 223
e 176 225
e 176 247
e 177 185
e 177 188
e 177 196
e 177 203
e 177 207
e 177 208
e 177 212
e 177 230
e 177 232
e 177 239
e 178 179
e 178 183
e 178 189
e 178 195
e 178 205
e 178 206
e 178 223
e 178 235
e 178 239
e 178 242
e 179 181
e 179 193
e 179 219
e 179 231
e 179 232
e 179 235
e 179 242
e 180 185
e 180 199
e 180 210
e 180 221
e 180 237
e 180 241
e 181 194
e 181 202
e 181 204
e 181 207
e 181 209
e 181 213
e 181 214
e 181 216
e 181 222
e 181 237
e 181 248
e 182 196
e 182 222
e 182 227
e 182 233
e 182 234
e 182 241
e 183 201
e 183 210
e 183 220
e 183 232
e 183 249
e 184 213
e 184 221
e 184 222
e 184 228
e 184 247
e 185 212
e 185 221
e 186 206
e 186 225
e 186 232
e 186 235
e 186 237
e 187 190
e 187 196
e 187 201
e 187 202
e 187 213
e 187 227
e 187 229
e 187 239
e 188 192
e 188 213
e 188 215
e 188 218
e 188 224
e 188 240
e 189 193
e 189 214
e 189 222
e 189 231
e 189 242
e 190 200
e 190 247
e 191 200
e 191 218
e 191 231
e 191 240
e 191 241
e 191 246
e 191 250
e 192 210
e 192 213
e 192 225
e 192 231
e 192 240
e 192 242
e 192 249
e 193 197
e 193 199
e 193 206
e 193 222
e 193 226
e 193 239
e 193 248
e 194 195
e 194 205
e 194 208
e 194 217
e 194 221
e 194 238
e 195 201
e 195 205
e 195 208
e 195 239
e 196 206
e 196 214
e 196 222
e 196 230
e 196 231
e 196 247
e 197 199
e 197 201
e 197 221
e 197 225
e 197 231
e 197 250
e 198 203
e 198 207
e 198 218
e 198 224
e 198 230
e 198 243
e 199 227
e 199 232
e 199 235
e 200 208
e 200 220
e 200 228
e 200 240
e 201 204
e 201 216
e 201 221
e 201 229
e 201 246
e 201 250
e 202 214
e 202 224
e 203 205
e 203 207
e 203 230
e 203 250
e 204 206
e 204 219
e 204 220
e 204 221
e 204 227
e 204 237
e 204 239
e 205 213
e 205 217
e 205 233
e 205 235
e 205 241
e 206 224
e 206 234
e 207 225
e 207 233
e 207 243
e 208 213
e 208 234
e 208 249
e 209 213
e 209 239
e 209 243
e 209 244
e 209 245
e 209 248
e 210 221
e 210 228
e 210 243
e 210 245
e 211 213
e 211 219
e 211 241
e 212 230
e 212 234
e 212 245
e 213 220
e 213 227
e 213 243
e 214 215
e 214 245
e 215 231
e 215 235
e 215 242
e 216 221
e 216 224
e 217 219
e 217 220
e 217 228
e 217 236
e 218 225
e 218 226
e 218 229
e 218 241
e 218 244
e 219 241
e 219 246
e 220 226
e 220 228
e 220 235
e 220 246
e 221 228
e 221 246
e 222 234
e 222 238
e 223 231
e 223 239
e 223 242
e 224 231
e 224 237
e 224 243
e 224 244
e 224 249
e 225 227
e 225 235
e 226 235
e 226 240
e 227 231
e 227 232
e 227 247
e 227 249
e 227 250
e 229 231
e 229 236
e 229 240
e 229 241
e 229 248
e 229 250
e 230 232
e 230 235
e 231 234
e 231 240
e 232 235
e 232 237
e 232 244
e 235 243
e 235 244
e 236 237
e 236 243
e 236 249
e 237 246
e 241 242
e 241 246
e 241 250
e 243 250
